\ This file has been generated by DOcplex
\ ENCODING=ISO-8859-1
\Problem name: BMW

Minimize
 obj: x_1_1 + x_3_1 + x_1_4 + x_3_4
Subject To
 c1: y_2_2 <= 4
 c2: y_2_2 >= 1
 c3: y_2_3 <= 4
 c4: y_2_3 >= 1
 c5: y_2_2 - x_1_1 - x_3_1 - x_1_4 - x_3_4 = 0
 c6: y_2_3 - x_1_1 - x_3_1 - x_1_4 - x_3_4 = 0

Bounds
 0 <= x_1_1 <= 1
 0 <= x_3_1 <= 1
 0 <= x_1_4 <= 1
 0 <= x_3_4 <= 1
       y_2_2 <= 4
       y_2_3 <= 4

Binaries
 x_1_1 x_3_1 x_1_4 x_3_4

Generals
 y_2_2 y_2_3
End
